(declare-const a0 Int)
(declare-const a1 Int)
(declare-const a2 Int)
(declare-const a3 Int)
(declare-const a4 Int)
(declare-const a5 Int)
(declare-const a6 Int)
(declare-const a7 Int)
(declare-const a8 Int)
(declare-const a9 Int)
(declare-const d0 Bool)
(declare-const d1 Bool)
(declare-const d2 Bool)
(declare-const d3 Bool)
(declare-const d4 Bool)
(declare-const d5 Bool)
(declare-const d6 Bool)
(declare-const d7 Bool)
(declare-const d8 Bool)
(declare-const d9 Bool)
(declare-const s1 Int)
(declare-const s2 Int)
(declare-const s3 Int)
(assert (>= a0 0))
(assert (>= a1 0))
(assert (>= a2 0))
(assert (>= a3 0))
(assert (>= a4 0))
(assert (>= a5 0))
(assert (>= a6 0))
(assert (>= a7 0))
(assert (>= a8 0))
(assert (>= a9 0))
(assert (>= s1 0))
(assert (>= s2 0))
(assert (>= s3 0))
(assert
 (exists
  ((p1 Int) (p2 Bool) (p1_1 Int) (p2_1 Bool) (p1_2 Int) (p2_2 Bool)
   (p1_3 Int) (p2_3 Bool) (p1_4 Int) (p2_4 Bool) (p1_5 Int) (p2_5 Bool)
   (p1_6 Int) (p2_6 Bool) (p1_7 Int) (p2_7 Bool) (p1_8 Int) (p2_8 Bool)
   (p1_9 Int) (p2_9 Bool) (a Int) (a_1 Int) (c Int) (p1_10 Int) (p2_10 Bool)
   (p1_11 Int) (p2_11 Bool) (p1_12 Int) (p2_12 Bool) (p1_13 Int) (p2_13 Bool)
   (p1_14 Int) (p2_14 Bool) (p1_15 Int) (p2_15 Bool) (p1_16 Int) (p2_16 Bool)
   (p1_17 Int) (p2_17 Bool) (p1_18 Int) (p2_18 Bool) (p1_19 Int) (p2_19 Bool)
   (a_2 Int) (a_3 Int) (c_1 Int) (p1_20 Int) (p2_20 Bool) (p1_21 Int)
   (p2_21 Bool) (p1_22 Int) (p2_22 Bool) (p1_23 Int) (p2_23 Bool) (p1_24 Int)
   (p2_24 Bool) (p1_25 Int) (p2_25 Bool) (p1_26 Int) (p2_26 Bool) (p1_27 Int)
   (p2_27 Bool) (p1_28 Int) (p2_28 Bool) (p1_29 Int) (p2_29 Bool) (a_4 Int)
   (a_5 Int) (c_2 Int) (p1_30 Int) (p2_30 Bool) (p1_31 Int) (p2_31 Bool)
   (p1_32 Int) (p2_32 Bool) (p1_33 Int) (p2_33 Bool) (p1_34 Int) (p2_34 Bool)
   (p1_35 Int) (p2_35 Bool) (p1_36 Int) (p2_36 Bool) (p1_37 Int) (p2_37 Bool)
   (p1_38 Int) (p2_38 Bool) (p1_39 Int) (p2_39 Bool) (a_6 Int) (a_7 Int)
   (c_3 Int))
  (and (>= p1 0) (>= p1_1 0) (>= p1_2 0) (>= p1_3 0) (>= p1_4 0) (>= p1_5 0)
   (>= p1_6 0) (>= p1_7 0) (>= p1_8 0) (>= p1_9 0) (>= a 0) (>= a_1 0)
   (>= c 0) (>= p1_10 0) (>= p1_11 0) (>= p1_12 0) (>= p1_13 0) (>= p1_14 0)
   (>= p1_15 0) (>= p1_16 0) (>= p1_17 0) (>= p1_18 0) (>= p1_19 0)
   (>= a_2 0) (>= a_3 0) (>= c_1 0) (>= p1_20 0) (>= p1_21 0) (>= p1_22 0)
   (>= p1_23 0) (>= p1_24 0) (>= p1_25 0) (>= p1_26 0) (>= p1_27 0)
   (>= p1_28 0) (>= p1_29 0) (>= a_4 0) (>= a_5 0) (>= c_2 0) (>= p1_30 0)
   (>= p1_31 0) (>= p1_32 0) (>= p1_33 0) (>= p1_34 0) (>= p1_35 0)
   (>= p1_36 0) (>= p1_37 0) (>= p1_38 0) (>= p1_39 0) (>= a_6 0) (>= a_7 0)
   (>= c_3 0)
   (and (<= p1 4) (<= p1_1 4) (<= p1_2 4) (<= p1_3 4) (<= p1_4 4) (<= p1_5 4)
    (<= p1_6 4) (<= p1_7 4) (<= p1_8 4) (<= p1_9 4) (<= p1_10 4) (<= p1_11 4)
    (<= p1_12 4) (<= p1_13 4) (<= p1_14 4) (<= p1_15 4) (<= p1_16 4)
    (<= p1_17 4) (<= p1_18 4) (<= p1_19 4) (<= p1_20 4) (<= p1_21 4)
    (<= p1_22 4) (<= p1_23 4) (<= p1_24 4) (<= p1_25 4) (<= p1_26 4)
    (<= p1_27 4) (<= p1_28 4) (<= p1_29 4) (<= p1_30 4) (<= p1_31 4)
    (<= p1_32 4) (<= p1_33 4) (<= p1_34 4) (<= p1_35 4) (<= p1_36 4)
    (<= p1_37 4) (<= p1_38 4) (<= p1_39 4)
    (= a_6
     (+ 0 (ite (= 0 1) 1 0) (ite (= 0 1) 1 0) (ite (= 0 1) 1 0)
      (ite (= 0 1) 1 0) (ite (= 0 1) 1 0) (ite (= 0 1) 1 0) (ite (= 0 1) 1 0)
      (ite (= 0 1) 1 0) (ite (= 0 1) 1 0) (ite (= 0 1) 1 0)))
    (= c_3
     (+ 0 (ite (= 0 3) 1 0) (ite (= 0 3) 1 0) (ite (= 0 3) 1 0)
      (ite (= 0 3) 1 0) (ite (= 0 3) 1 0) (ite (= 0 3) 1 0) (ite (= 0 3) 1 0)
      (ite (= 0 3) 1 0) (ite (= 0 3) 1 0) (ite (= 0 3) 1 0)))
    (= a_7
     (+ 0 (ite (= 0 2) 1 0) (ite (= 0 2) 1 0) (ite (= 0 2) 1 0)
      (ite (= 0 2) 1 0) (ite (= 0 2) 1 0) (ite (= 0 2) 1 0) (ite (= 0 2) 1 0)
      (ite (= 0 2) 1 0) (ite (= 0 2) 1 0) (ite (= 0 2) 1 0)))
    (=> (= 0 1) (and (= p1_30 4) p2_30)) (=> (= 0 2) (and (= p1_30 3) p2_30))
    (=> (= 0 3) (and (= p1_30 4) p2_30)) (or (= p1_30 1) (= p1_30 2)) p2_30
    (=> (= p1_30 1) (<= 0 0)) (=> (= p1_30 2) (<= 0 0))
    (=> (= 0 4) (and (or (= p1_30 1) (= p1_30 3)) (not p2_30)))
    (=> (and (= 0 4) (= p1_30 1)) (<= 0 0))
    (=> (and (= 0 4) (= p1_30 3)) (<= 0 0))
    (=> (= 0 1) (and (= p1_34 4) p2_34)) (=> (= 0 2) (and (= p1_34 3) p2_34))
    (=> (= 0 3) (and (= p1_34 4) p2_34)) (or (= p1_34 1) (= p1_34 2)) p2_34
    (=> (= p1_34 1) (<= 0 0)) (=> (= p1_34 2) (<= 0 0))
    (=> (= 0 4) (and (or (= p1_34 1) (= p1_34 3)) (not p2_34)))
    (=> (and (= 0 4) (= p1_34 1)) (<= 0 0))
    (=> (and (= 0 4) (= p1_34 3)) (<= 0 0))
    (=> (= 0 1) (and (= p1_31 4) p2_31)) (=> (= 0 2) (and (= p1_31 3) p2_31))
    (=> (= 0 3) (and (= p1_31 4) p2_31)) (or (= p1_31 1) (= p1_31 2)) p2_31
    (=> (= p1_31 1) (<= 0 0)) (=> (= p1_31 2) (<= 0 0))
    (=> (= 0 4) (and (or (= p1_31 1) (= p1_31 3)) (not p2_31)))
    (=> (and (= 0 4) (= p1_31 1)) (<= 0 0))
    (=> (and (= 0 4) (= p1_31 3)) (<= 0 0))
    (=> (= 0 1) (and (= p1_32 4) p2_32)) (=> (= 0 2) (and (= p1_32 3) p2_32))
    (=> (= 0 3) (and (= p1_32 4) p2_32)) (or (= p1_32 1) (= p1_32 2)) p2_32
    (=> (= p1_32 1) (<= 0 0)) (=> (= p1_32 2) (<= 0 0))
    (=> (= 0 4) (and (or (= p1_32 1) (= p1_32 3)) (not p2_32)))
    (=> (and (= 0 4) (= p1_32 1)) (<= 0 0))
    (=> (and (= 0 4) (= p1_32 3)) (<= 0 0))
    (=> (= 0 1) (and (= p1_33 4) p2_33)) (=> (= 0 2) (and (= p1_33 3) p2_33))
    (=> (= 0 3) (and (= p1_33 4) p2_33)) (or (= p1_33 1) (= p1_33 2)) p2_33
    (=> (= p1_33 1) (<= 0 0)) (=> (= p1_33 2) (<= 0 0))
    (=> (= 0 4) (and (or (= p1_33 1) (= p1_33 3)) (not p2_33)))
    (=> (and (= 0 4) (= p1_33 1)) (<= 0 0))
    (=> (and (= 0 4) (= p1_33 3)) (<= 0 0))
    (=> (= 0 1) (and (= p1_35 4) p2_35)) (=> (= 0 2) (and (= p1_35 3) p2_35))
    (=> (= 0 3) (and (= p1_35 4) p2_35)) (or (= p1_35 1) (= p1_35 2)) p2_35
    (=> (= p1_35 1) (<= 0 0)) (=> (= p1_35 2) (<= 0 0))
    (=> (= 0 4) (and (or (= p1_35 1) (= p1_35 3)) (not p2_35)))
    (=> (and (= 0 4) (= p1_35 1)) (<= 0 0))
    (=> (and (= 0 4) (= p1_35 3)) (<= 0 0))
    (=> (= 0 1) (and (= p1_39 4) p2_39)) (=> (= 0 2) (and (= p1_39 3) p2_39))
    (=> (= 0 3) (and (= p1_39 4) p2_39)) (or (= p1_39 1) (= p1_39 2)) p2_39
    (=> (= p1_39 1) (<= 0 0)) (=> (= p1_39 2) (<= 0 0))
    (=> (= 0 4) (and (or (= p1_39 1) (= p1_39 3)) (not p2_39)))
    (=> (and (= 0 4) (= p1_39 1)) (<= 0 0))
    (=> (and (= 0 4) (= p1_39 3)) (<= 0 0))
    (=> (= 0 1) (and (= p1_36 4) p2_36)) (=> (= 0 2) (and (= p1_36 3) p2_36))
    (=> (= 0 3) (and (= p1_36 4) p2_36)) (or (= p1_36 1) (= p1_36 2)) p2_36
    (=> (= p1_36 1) (<= 0 0)) (=> (= p1_36 2) (<= 0 0))
    (=> (= 0 4) (and (or (= p1_36 1) (= p1_36 3)) (not p2_36)))
    (=> (and (= 0 4) (= p1_36 1)) (<= 0 0))
    (=> (and (= 0 4) (= p1_36 3)) (<= 0 0))
    (=> (= 0 1) (and (= p1_37 4) p2_37)) (=> (= 0 2) (and (= p1_37 3) p2_37))
    (=> (= 0 3) (and (= p1_37 4) p2_37)) (or (= p1_37 1) (= p1_37 2)) p2_37
    (=> (= p1_37 1) (<= 0 0)) (=> (= p1_37 2) (<= 0 0))
    (=> (= 0 4) (and (or (= p1_37 1) (= p1_37 3)) (not p2_37)))
    (=> (and (= 0 4) (= p1_37 1)) (<= 0 0))
    (=> (and (= 0 4) (= p1_37 3)) (<= 0 0))
    (=> (= 0 1) (and (= p1_38 4) p2_38)) (=> (= 0 2) (and (= p1_38 3) p2_38))
    (=> (= 0 3) (and (= p1_38 4) p2_38)) (or (= p1_38 1) (= p1_38 2)) p2_38
    (=> (= p1_38 1) (<= 0 0)) (=> (= p1_38 2) (<= 0 0))
    (=> (= 0 4) (and (or (= p1_38 1) (= p1_38 3)) (not p2_38)))
    (=> (and (= 0 4) (= p1_38 1)) (<= 0 0))
    (=> (and (= 0 4) (= p1_38 3)) (<= 0 0))
    (= a_4
     (+ a_6 (ite (= p1_30 1) 1 0) (ite (= p1_35 1) 1 0) (ite (= p1_32 1) 1 0)
      (ite (= p1_37 1) 1 0) (ite (= p1_31 1) 1 0) (ite (= p1_36 1) 1 0)
      (ite (= p1_33 1) 1 0) (ite (= p1_38 1) 1 0) (ite (= p1_34 1) 1 0)
      (ite (= p1_39 1) 1 0)))
    (= c_2
     (+ c_3 (ite (= p1_30 3) 1 0) (ite (= p1_35 3) 1 0) (ite (= p1_32 3) 1 0)
      (ite (= p1_37 3) 1 0) (ite (= p1_31 3) 1 0) (ite (= p1_36 3) 1 0)
      (ite (= p1_33 3) 1 0) (ite (= p1_38 3) 1 0) (ite (= p1_34 3) 1 0)
      (ite (= p1_39 3) 1 0)))
    (= a_5
     (+ a_7 (ite (= p1_30 2) 1 0) (ite (= p1_35 2) 1 0) (ite (= p1_32 2) 1 0)
      (ite (= p1_37 2) 1 0) (ite (= p1_31 2) 1 0) (ite (= p1_36 2) 1 0)
      (ite (= p1_33 2) 1 0) (ite (= p1_38 2) 1 0) (ite (= p1_34 2) 1 0)
      (ite (= p1_39 2) 1 0)))
    (=> (= p1_30 1) (and (= p1_20 (ite p2_30 4 0)) (iff p2_20 p2_30)))
    (=> (= p1_30 2) (and (= p1_20 (ite p2_30 3 0)) (iff p2_20 p2_30)))
    (=> (= p1_30 3) (and (= p1_20 (ite p2_30 4 2)) (iff p2_20 p2_30)))
    (=> (= p1_30 0) (and (or (= p1_20 1) (= p1_20 2)) p2_20))
    (=> (and (= p1_30 0) (= p1_20 1)) (<= a_7 a_6))
    (=> (and (= p1_30 0) (= p1_20 2)) (<= a_6 a_7))
    (=> (= p1_30 4) (and (or (= p1_20 1) (= p1_20 3)) (not p2_20)))
    (=> (and (= p1_30 4) (= p1_20 1)) (<= c_3 a_6))
    (=> (and (= p1_30 4) (= p1_20 3)) (<= a_6 c_3))
    (=> (= p1_34 1) (and (= p1_24 (ite p2_34 4 0)) (iff p2_24 p2_34)))
    (=> (= p1_34 2) (and (= p1_24 (ite p2_34 3 0)) (iff p2_24 p2_34)))
    (=> (= p1_34 3) (and (= p1_24 (ite p2_34 4 2)) (iff p2_24 p2_34)))
    (=> (= p1_34 0) (and (or (= p1_24 1) (= p1_24 2)) p2_24))
    (=> (and (= p1_34 0) (= p1_24 1)) (<= a_7 a_6))
    (=> (and (= p1_34 0) (= p1_24 2)) (<= a_6 a_7))
    (=> (= p1_34 4) (and (or (= p1_24 1) (= p1_24 3)) (not p2_24)))
    (=> (and (= p1_34 4) (= p1_24 1)) (<= c_3 a_6))
    (=> (and (= p1_34 4) (= p1_24 3)) (<= a_6 c_3))
    (=> (= p1_31 1) (and (= p1_21 (ite p2_31 4 0)) (iff p2_21 p2_31)))
    (=> (= p1_31 2) (and (= p1_21 (ite p2_31 3 0)) (iff p2_21 p2_31)))
    (=> (= p1_31 3) (and (= p1_21 (ite p2_31 4 2)) (iff p2_21 p2_31)))
    (=> (= p1_31 0) (and (or (= p1_21 1) (= p1_21 2)) p2_21))
    (=> (and (= p1_31 0) (= p1_21 1)) (<= a_7 a_6))
    (=> (and (= p1_31 0) (= p1_21 2)) (<= a_6 a_7))
    (=> (= p1_31 4) (and (or (= p1_21 1) (= p1_21 3)) (not p2_21)))
    (=> (and (= p1_31 4) (= p1_21 1)) (<= c_3 a_6))
    (=> (and (= p1_31 4) (= p1_21 3)) (<= a_6 c_3))
    (=> (= p1_32 1) (and (= p1_22 (ite p2_32 4 0)) (iff p2_22 p2_32)))
    (=> (= p1_32 2) (and (= p1_22 (ite p2_32 3 0)) (iff p2_22 p2_32)))
    (=> (= p1_32 3) (and (= p1_22 (ite p2_32 4 2)) (iff p2_22 p2_32)))
    (=> (= p1_32 0) (and (or (= p1_22 1) (= p1_22 2)) p2_22))
    (=> (and (= p1_32 0) (= p1_22 1)) (<= a_7 a_6))
    (=> (and (= p1_32 0) (= p1_22 2)) (<= a_6 a_7))
    (=> (= p1_32 4) (and (or (= p1_22 1) (= p1_22 3)) (not p2_22)))
    (=> (and (= p1_32 4) (= p1_22 1)) (<= c_3 a_6))
    (=> (and (= p1_32 4) (= p1_22 3)) (<= a_6 c_3))
    (=> (= p1_33 1) (and (= p1_23 (ite p2_33 4 0)) (iff p2_23 p2_33)))
    (=> (= p1_33 2) (and (= p1_23 (ite p2_33 3 0)) (iff p2_23 p2_33)))
    (=> (= p1_33 3) (and (= p1_23 (ite p2_33 4 2)) (iff p2_23 p2_33)))
    (=> (= p1_33 0) (and (or (= p1_23 1) (= p1_23 2)) p2_23))
    (=> (and (= p1_33 0) (= p1_23 1)) (<= a_7 a_6))
    (=> (and (= p1_33 0) (= p1_23 2)) (<= a_6 a_7))
    (=> (= p1_33 4) (and (or (= p1_23 1) (= p1_23 3)) (not p2_23)))
    (=> (and (= p1_33 4) (= p1_23 1)) (<= c_3 a_6))
    (=> (and (= p1_33 4) (= p1_23 3)) (<= a_6 c_3))
    (=> (= p1_35 1) (and (= p1_25 (ite p2_35 4 0)) (iff p2_25 p2_35)))
    (=> (= p1_35 2) (and (= p1_25 (ite p2_35 3 0)) (iff p2_25 p2_35)))
    (=> (= p1_35 3) (and (= p1_25 (ite p2_35 4 2)) (iff p2_25 p2_35)))
    (=> (= p1_35 0) (and (or (= p1_25 1) (= p1_25 2)) p2_25))
    (=> (and (= p1_35 0) (= p1_25 1)) (<= a_7 a_6))
    (=> (and (= p1_35 0) (= p1_25 2)) (<= a_6 a_7))
    (=> (= p1_35 4) (and (or (= p1_25 1) (= p1_25 3)) (not p2_25)))
    (=> (and (= p1_35 4) (= p1_25 1)) (<= c_3 a_6))
    (=> (and (= p1_35 4) (= p1_25 3)) (<= a_6 c_3))
    (=> (= p1_39 1) (and (= p1_29 (ite p2_39 4 0)) (iff p2_29 p2_39)))
    (=> (= p1_39 2) (and (= p1_29 (ite p2_39 3 0)) (iff p2_29 p2_39)))
    (=> (= p1_39 3) (and (= p1_29 (ite p2_39 4 2)) (iff p2_29 p2_39)))
    (=> (= p1_39 0) (and (or (= p1_29 1) (= p1_29 2)) p2_29))
    (=> (and (= p1_39 0) (= p1_29 1)) (<= a_7 a_6))
    (=> (and (= p1_39 0) (= p1_29 2)) (<= a_6 a_7))
    (=> (= p1_39 4) (and (or (= p1_29 1) (= p1_29 3)) (not p2_29)))
    (=> (and (= p1_39 4) (= p1_29 1)) (<= c_3 a_6))
    (=> (and (= p1_39 4) (= p1_29 3)) (<= a_6 c_3))
    (=> (= p1_36 1) (and (= p1_26 (ite p2_36 4 0)) (iff p2_26 p2_36)))
    (=> (= p1_36 2) (and (= p1_26 (ite p2_36 3 0)) (iff p2_26 p2_36)))
    (=> (= p1_36 3) (and (= p1_26 (ite p2_36 4 2)) (iff p2_26 p2_36)))
    (=> (= p1_36 0) (and (or (= p1_26 1) (= p1_26 2)) p2_26))
    (=> (and (= p1_36 0) (= p1_26 1)) (<= a_7 a_6))
    (=> (and (= p1_36 0) (= p1_26 2)) (<= a_6 a_7))
    (=> (= p1_36 4) (and (or (= p1_26 1) (= p1_26 3)) (not p2_26)))
    (=> (and (= p1_36 4) (= p1_26 1)) (<= c_3 a_6))
    (=> (and (= p1_36 4) (= p1_26 3)) (<= a_6 c_3))
    (=> (= p1_37 1) (and (= p1_27 (ite p2_37 4 0)) (iff p2_27 p2_37)))
    (=> (= p1_37 2) (and (= p1_27 (ite p2_37 3 0)) (iff p2_27 p2_37)))
    (=> (= p1_37 3) (and (= p1_27 (ite p2_37 4 2)) (iff p2_27 p2_37)))
    (=> (= p1_37 0) (and (or (= p1_27 1) (= p1_27 2)) p2_27))
    (=> (and (= p1_37 0) (= p1_27 1)) (<= a_7 a_6))
    (=> (and (= p1_37 0) (= p1_27 2)) (<= a_6 a_7))
    (=> (= p1_37 4) (and (or (= p1_27 1) (= p1_27 3)) (not p2_27)))
    (=> (and (= p1_37 4) (= p1_27 1)) (<= c_3 a_6))
    (=> (and (= p1_37 4) (= p1_27 3)) (<= a_6 c_3))
    (=> (= p1_38 1) (and (= p1_28 (ite p2_38 4 0)) (iff p2_28 p2_38)))
    (=> (= p1_38 2) (and (= p1_28 (ite p2_38 3 0)) (iff p2_28 p2_38)))
    (=> (= p1_38 3) (and (= p1_28 (ite p2_38 4 2)) (iff p2_28 p2_38)))
    (=> (= p1_38 0) (and (or (= p1_28 1) (= p1_28 2)) p2_28))
    (=> (and (= p1_38 0) (= p1_28 1)) (<= a_7 a_6))
    (=> (and (= p1_38 0) (= p1_28 2)) (<= a_6 a_7))
    (=> (= p1_38 4) (and (or (= p1_28 1) (= p1_28 3)) (not p2_28)))
    (=> (and (= p1_38 4) (= p1_28 1)) (<= c_3 a_6))
    (=> (and (= p1_38 4) (= p1_28 3)) (<= a_6 c_3))
    (= a_2
     (+ a_4 (ite (= p1_20 1) 1 0) (ite (= p1_25 1) 1 0) (ite (= p1_22 1) 1 0)
      (ite (= p1_27 1) 1 0) (ite (= p1_21 1) 1 0) (ite (= p1_26 1) 1 0)
      (ite (= p1_23 1) 1 0) (ite (= p1_28 1) 1 0) (ite (= p1_24 1) 1 0)
      (ite (= p1_29 1) 1 0)))
    (= c_1
     (+ c_2 (ite (= p1_20 3) 1 0) (ite (= p1_25 3) 1 0) (ite (= p1_22 3) 1 0)
      (ite (= p1_27 3) 1 0) (ite (= p1_21 3) 1 0) (ite (= p1_26 3) 1 0)
      (ite (= p1_23 3) 1 0) (ite (= p1_28 3) 1 0) (ite (= p1_24 3) 1 0)
      (ite (= p1_29 3) 1 0)))
    (= a_3
     (+ a_5 (ite (= p1_20 2) 1 0) (ite (= p1_25 2) 1 0) (ite (= p1_22 2) 1 0)
      (ite (= p1_27 2) 1 0) (ite (= p1_21 2) 1 0) (ite (= p1_26 2) 1 0)
      (ite (= p1_23 2) 1 0) (ite (= p1_28 2) 1 0) (ite (= p1_24 2) 1 0)
      (ite (= p1_29 2) 1 0)))
    (=> (= p1_20 1) (and (= p1_10 (ite p2_20 4 0)) (iff p2_10 p2_20)))
    (=> (= p1_20 2) (and (= p1_10 (ite p2_20 3 0)) (iff p2_10 p2_20)))
    (=> (= p1_20 3) (and (= p1_10 (ite p2_20 4 2)) (iff p2_10 p2_20)))
    (=> (= p1_20 0) (and (or (= p1_10 1) (= p1_10 2)) p2_10))
    (=> (and (= p1_20 0) (= p1_10 1)) (<= a_5 a_4))
    (=> (and (= p1_20 0) (= p1_10 2)) (<= a_4 a_5))
    (=> (= p1_20 4) (and (or (= p1_10 1) (= p1_10 3)) (not p2_10)))
    (=> (and (= p1_20 4) (= p1_10 1)) (<= c_2 a_4))
    (=> (and (= p1_20 4) (= p1_10 3)) (<= a_4 c_2))
    (=> (= p1_24 1) (and (= p1_14 (ite p2_24 4 0)) (iff p2_14 p2_24)))
    (=> (= p1_24 2) (and (= p1_14 (ite p2_24 3 0)) (iff p2_14 p2_24)))
    (=> (= p1_24 3) (and (= p1_14 (ite p2_24 4 2)) (iff p2_14 p2_24)))
    (=> (= p1_24 0) (and (or (= p1_14 1) (= p1_14 2)) p2_14))
    (=> (and (= p1_24 0) (= p1_14 1)) (<= a_5 a_4))
    (=> (and (= p1_24 0) (= p1_14 2)) (<= a_4 a_5))
    (=> (= p1_24 4) (and (or (= p1_14 1) (= p1_14 3)) (not p2_14)))
    (=> (and (= p1_24 4) (= p1_14 1)) (<= c_2 a_4))
    (=> (and (= p1_24 4) (= p1_14 3)) (<= a_4 c_2))
    (=> (= p1_21 1) (and (= p1_11 (ite p2_21 4 0)) (iff p2_11 p2_21)))
    (=> (= p1_21 2) (and (= p1_11 (ite p2_21 3 0)) (iff p2_11 p2_21)))
    (=> (= p1_21 3) (and (= p1_11 (ite p2_21 4 2)) (iff p2_11 p2_21)))
    (=> (= p1_21 0) (and (or (= p1_11 1) (= p1_11 2)) p2_11))
    (=> (and (= p1_21 0) (= p1_11 1)) (<= a_5 a_4))
    (=> (and (= p1_21 0) (= p1_11 2)) (<= a_4 a_5))
    (=> (= p1_21 4) (and (or (= p1_11 1) (= p1_11 3)) (not p2_11)))
    (=> (and (= p1_21 4) (= p1_11 1)) (<= c_2 a_4))
    (=> (and (= p1_21 4) (= p1_11 3)) (<= a_4 c_2))
    (=> (= p1_22 1) (and (= p1_12 (ite p2_22 4 0)) (iff p2_12 p2_22)))
    (=> (= p1_22 2) (and (= p1_12 (ite p2_22 3 0)) (iff p2_12 p2_22)))
    (=> (= p1_22 3) (and (= p1_12 (ite p2_22 4 2)) (iff p2_12 p2_22)))
    (=> (= p1_22 0) (and (or (= p1_12 1) (= p1_12 2)) p2_12))
    (=> (and (= p1_22 0) (= p1_12 1)) (<= a_5 a_4))
    (=> (and (= p1_22 0) (= p1_12 2)) (<= a_4 a_5))
    (=> (= p1_22 4) (and (or (= p1_12 1) (= p1_12 3)) (not p2_12)))
    (=> (and (= p1_22 4) (= p1_12 1)) (<= c_2 a_4))
    (=> (and (= p1_22 4) (= p1_12 3)) (<= a_4 c_2))
    (=> (= p1_23 1) (and (= p1_13 (ite p2_23 4 0)) (iff p2_13 p2_23)))
    (=> (= p1_23 2) (and (= p1_13 (ite p2_23 3 0)) (iff p2_13 p2_23)))
    (=> (= p1_23 3) (and (= p1_13 (ite p2_23 4 2)) (iff p2_13 p2_23)))
    (=> (= p1_23 0) (and (or (= p1_13 1) (= p1_13 2)) p2_13))
    (=> (and (= p1_23 0) (= p1_13 1)) (<= a_5 a_4))
    (=> (and (= p1_23 0) (= p1_13 2)) (<= a_4 a_5))
    (=> (= p1_23 4) (and (or (= p1_13 1) (= p1_13 3)) (not p2_13)))
    (=> (and (= p1_23 4) (= p1_13 1)) (<= c_2 a_4))
    (=> (and (= p1_23 4) (= p1_13 3)) (<= a_4 c_2))
    (=> (= p1_25 1) (and (= p1_15 (ite p2_25 4 0)) (iff p2_15 p2_25)))
    (=> (= p1_25 2) (and (= p1_15 (ite p2_25 3 0)) (iff p2_15 p2_25)))
    (=> (= p1_25 3) (and (= p1_15 (ite p2_25 4 2)) (iff p2_15 p2_25)))
    (=> (= p1_25 0) (and (or (= p1_15 1) (= p1_15 2)) p2_15))
    (=> (and (= p1_25 0) (= p1_15 1)) (<= a_5 a_4))
    (=> (and (= p1_25 0) (= p1_15 2)) (<= a_4 a_5))
    (=> (= p1_25 4) (and (or (= p1_15 1) (= p1_15 3)) (not p2_15)))
    (=> (and (= p1_25 4) (= p1_15 1)) (<= c_2 a_4))
    (=> (and (= p1_25 4) (= p1_15 3)) (<= a_4 c_2))
    (=> (= p1_29 1) (and (= p1_19 (ite p2_29 4 0)) (iff p2_19 p2_29)))
    (=> (= p1_29 2) (and (= p1_19 (ite p2_29 3 0)) (iff p2_19 p2_29)))
    (=> (= p1_29 3) (and (= p1_19 (ite p2_29 4 2)) (iff p2_19 p2_29)))
    (=> (= p1_29 0) (and (or (= p1_19 1) (= p1_19 2)) p2_19))
    (=> (and (= p1_29 0) (= p1_19 1)) (<= a_5 a_4))
    (=> (and (= p1_29 0) (= p1_19 2)) (<= a_4 a_5))
    (=> (= p1_29 4) (and (or (= p1_19 1) (= p1_19 3)) (not p2_19)))
    (=> (and (= p1_29 4) (= p1_19 1)) (<= c_2 a_4))
    (=> (and (= p1_29 4) (= p1_19 3)) (<= a_4 c_2))
    (=> (= p1_26 1) (and (= p1_16 (ite p2_26 4 0)) (iff p2_16 p2_26)))
    (=> (= p1_26 2) (and (= p1_16 (ite p2_26 3 0)) (iff p2_16 p2_26)))
    (=> (= p1_26 3) (and (= p1_16 (ite p2_26 4 2)) (iff p2_16 p2_26)))
    (=> (= p1_26 0) (and (or (= p1_16 1) (= p1_16 2)) p2_16))
    (=> (and (= p1_26 0) (= p1_16 1)) (<= a_5 a_4))
    (=> (and (= p1_26 0) (= p1_16 2)) (<= a_4 a_5))
    (=> (= p1_26 4) (and (or (= p1_16 1) (= p1_16 3)) (not p2_16)))
    (=> (and (= p1_26 4) (= p1_16 1)) (<= c_2 a_4))
    (=> (and (= p1_26 4) (= p1_16 3)) (<= a_4 c_2))
    (=> (= p1_27 1) (and (= p1_17 (ite p2_27 4 0)) (iff p2_17 p2_27)))
    (=> (= p1_27 2) (and (= p1_17 (ite p2_27 3 0)) (iff p2_17 p2_27)))
    (=> (= p1_27 3) (and (= p1_17 (ite p2_27 4 2)) (iff p2_17 p2_27)))
    (=> (= p1_27 0) (and (or (= p1_17 1) (= p1_17 2)) p2_17))
    (=> (and (= p1_27 0) (= p1_17 1)) (<= a_5 a_4))
    (=> (and (= p1_27 0) (= p1_17 2)) (<= a_4 a_5))
    (=> (= p1_27 4) (and (or (= p1_17 1) (= p1_17 3)) (not p2_17)))
    (=> (and (= p1_27 4) (= p1_17 1)) (<= c_2 a_4))
    (=> (and (= p1_27 4) (= p1_17 3)) (<= a_4 c_2))
    (=> (= p1_28 1) (and (= p1_18 (ite p2_28 4 0)) (iff p2_18 p2_28)))
    (=> (= p1_28 2) (and (= p1_18 (ite p2_28 3 0)) (iff p2_18 p2_28)))
    (=> (= p1_28 3) (and (= p1_18 (ite p2_28 4 2)) (iff p2_18 p2_28)))
    (=> (= p1_28 0) (and (or (= p1_18 1) (= p1_18 2)) p2_18))
    (=> (and (= p1_28 0) (= p1_18 1)) (<= a_5 a_4))
    (=> (and (= p1_28 0) (= p1_18 2)) (<= a_4 a_5))
    (=> (= p1_28 4) (and (or (= p1_18 1) (= p1_18 3)) (not p2_18)))
    (=> (and (= p1_28 4) (= p1_18 1)) (<= c_2 a_4))
    (=> (and (= p1_28 4) (= p1_18 3)) (<= a_4 c_2))
    (= a
     (+ a_2 (ite (= p1_10 1) 1 0) (ite (= p1_15 1) 1 0) (ite (= p1_12 1) 1 0)
      (ite (= p1_17 1) 1 0) (ite (= p1_11 1) 1 0) (ite (= p1_16 1) 1 0)
      (ite (= p1_13 1) 1 0) (ite (= p1_18 1) 1 0) (ite (= p1_14 1) 1 0)
      (ite (= p1_19 1) 1 0)))
    (= c
     (+ c_1 (ite (= p1_10 3) 1 0) (ite (= p1_15 3) 1 0) (ite (= p1_12 3) 1 0)
      (ite (= p1_17 3) 1 0) (ite (= p1_11 3) 1 0) (ite (= p1_16 3) 1 0)
      (ite (= p1_13 3) 1 0) (ite (= p1_18 3) 1 0) (ite (= p1_14 3) 1 0)
      (ite (= p1_19 3) 1 0)))
    (= a_1
     (+ a_3 (ite (= p1_10 2) 1 0) (ite (= p1_15 2) 1 0) (ite (= p1_12 2) 1 0)
      (ite (= p1_17 2) 1 0) (ite (= p1_11 2) 1 0) (ite (= p1_16 2) 1 0)
      (ite (= p1_13 2) 1 0) (ite (= p1_18 2) 1 0) (ite (= p1_14 2) 1 0)
      (ite (= p1_19 2) 1 0)))
    (=> (= p1_10 1) (and (= p1 (ite p2_10 4 0)) (iff p2 p2_10)))
    (=> (= p1_10 2) (and (= p1 (ite p2_10 3 0)) (iff p2 p2_10)))
    (=> (= p1_10 3) (and (= p1 (ite p2_10 4 2)) (iff p2 p2_10)))
    (=> (= p1_10 0) (and (or (= p1 1) (= p1 2)) p2))
    (=> (and (= p1_10 0) (= p1 1)) (<= a_3 a_2))
    (=> (and (= p1_10 0) (= p1 2)) (<= a_2 a_3))
    (=> (= p1_10 4) (and (or (= p1 1) (= p1 3)) (not p2)))
    (=> (and (= p1_10 4) (= p1 1)) (<= c_1 a_2))
    (=> (and (= p1_10 4) (= p1 3)) (<= a_2 c_1))
    (=> (= p1_14 1) (and (= p1_4 (ite p2_14 4 0)) (iff p2_4 p2_14)))
    (=> (= p1_14 2) (and (= p1_4 (ite p2_14 3 0)) (iff p2_4 p2_14)))
    (=> (= p1_14 3) (and (= p1_4 (ite p2_14 4 2)) (iff p2_4 p2_14)))
    (=> (= p1_14 0) (and (or (= p1_4 1) (= p1_4 2)) p2_4))
    (=> (and (= p1_14 0) (= p1_4 1)) (<= a_3 a_2))
    (=> (and (= p1_14 0) (= p1_4 2)) (<= a_2 a_3))
    (=> (= p1_14 4) (and (or (= p1_4 1) (= p1_4 3)) (not p2_4)))
    (=> (and (= p1_14 4) (= p1_4 1)) (<= c_1 a_2))
    (=> (and (= p1_14 4) (= p1_4 3)) (<= a_2 c_1))
    (=> (= p1_11 1) (and (= p1_1 (ite p2_11 4 0)) (iff p2_1 p2_11)))
    (=> (= p1_11 2) (and (= p1_1 (ite p2_11 3 0)) (iff p2_1 p2_11)))
    (=> (= p1_11 3) (and (= p1_1 (ite p2_11 4 2)) (iff p2_1 p2_11)))
    (=> (= p1_11 0) (and (or (= p1_1 1) (= p1_1 2)) p2_1))
    (=> (and (= p1_11 0) (= p1_1 1)) (<= a_3 a_2))
    (=> (and (= p1_11 0) (= p1_1 2)) (<= a_2 a_3))
    (=> (= p1_11 4) (and (or (= p1_1 1) (= p1_1 3)) (not p2_1)))
    (=> (and (= p1_11 4) (= p1_1 1)) (<= c_1 a_2))
    (=> (and (= p1_11 4) (= p1_1 3)) (<= a_2 c_1))
    (=> (= p1_12 1) (and (= p1_2 (ite p2_12 4 0)) (iff p2_2 p2_12)))
    (=> (= p1_12 2) (and (= p1_2 (ite p2_12 3 0)) (iff p2_2 p2_12)))
    (=> (= p1_12 3) (and (= p1_2 (ite p2_12 4 2)) (iff p2_2 p2_12)))
    (=> (= p1_12 0) (and (or (= p1_2 1) (= p1_2 2)) p2_2))
    (=> (and (= p1_12 0) (= p1_2 1)) (<= a_3 a_2))
    (=> (and (= p1_12 0) (= p1_2 2)) (<= a_2 a_3))
    (=> (= p1_12 4) (and (or (= p1_2 1) (= p1_2 3)) (not p2_2)))
    (=> (and (= p1_12 4) (= p1_2 1)) (<= c_1 a_2))
    (=> (and (= p1_12 4) (= p1_2 3)) (<= a_2 c_1))
    (=> (= p1_13 1) (and (= p1_3 (ite p2_13 4 0)) (iff p2_3 p2_13)))
    (=> (= p1_13 2) (and (= p1_3 (ite p2_13 3 0)) (iff p2_3 p2_13)))
    (=> (= p1_13 3) (and (= p1_3 (ite p2_13 4 2)) (iff p2_3 p2_13)))
    (=> (= p1_13 0) (and (or (= p1_3 1) (= p1_3 2)) p2_3))
    (=> (and (= p1_13 0) (= p1_3 1)) (<= a_3 a_2))
    (=> (and (= p1_13 0) (= p1_3 2)) (<= a_2 a_3))
    (=> (= p1_13 4) (and (or (= p1_3 1) (= p1_3 3)) (not p2_3)))
    (=> (and (= p1_13 4) (= p1_3 1)) (<= c_1 a_2))
    (=> (and (= p1_13 4) (= p1_3 3)) (<= a_2 c_1))
    (=> (= p1_15 1) (and (= p1_5 (ite p2_15 4 0)) (iff p2_5 p2_15)))
    (=> (= p1_15 2) (and (= p1_5 (ite p2_15 3 0)) (iff p2_5 p2_15)))
    (=> (= p1_15 3) (and (= p1_5 (ite p2_15 4 2)) (iff p2_5 p2_15)))
    (=> (= p1_15 0) (and (or (= p1_5 1) (= p1_5 2)) p2_5))
    (=> (and (= p1_15 0) (= p1_5 1)) (<= a_3 a_2))
    (=> (and (= p1_15 0) (= p1_5 2)) (<= a_2 a_3))
    (=> (= p1_15 4) (and (or (= p1_5 1) (= p1_5 3)) (not p2_5)))
    (=> (and (= p1_15 4) (= p1_5 1)) (<= c_1 a_2))
    (=> (and (= p1_15 4) (= p1_5 3)) (<= a_2 c_1))
    (=> (= p1_19 1) (and (= p1_9 (ite p2_19 4 0)) (iff p2_9 p2_19)))
    (=> (= p1_19 2) (and (= p1_9 (ite p2_19 3 0)) (iff p2_9 p2_19)))
    (=> (= p1_19 3) (and (= p1_9 (ite p2_19 4 2)) (iff p2_9 p2_19)))
    (=> (= p1_19 0) (and (or (= p1_9 1) (= p1_9 2)) p2_9))
    (=> (and (= p1_19 0) (= p1_9 1)) (<= a_3 a_2))
    (=> (and (= p1_19 0) (= p1_9 2)) (<= a_2 a_3))
    (=> (= p1_19 4) (and (or (= p1_9 1) (= p1_9 3)) (not p2_9)))
    (=> (and (= p1_19 4) (= p1_9 1)) (<= c_1 a_2))
    (=> (and (= p1_19 4) (= p1_9 3)) (<= a_2 c_1))
    (=> (= p1_16 1) (and (= p1_6 (ite p2_16 4 0)) (iff p2_6 p2_16)))
    (=> (= p1_16 2) (and (= p1_6 (ite p2_16 3 0)) (iff p2_6 p2_16)))
    (=> (= p1_16 3) (and (= p1_6 (ite p2_16 4 2)) (iff p2_6 p2_16)))
    (=> (= p1_16 0) (and (or (= p1_6 1) (= p1_6 2)) p2_6))
    (=> (and (= p1_16 0) (= p1_6 1)) (<= a_3 a_2))
    (=> (and (= p1_16 0) (= p1_6 2)) (<= a_2 a_3))
    (=> (= p1_16 4) (and (or (= p1_6 1) (= p1_6 3)) (not p2_6)))
    (=> (and (= p1_16 4) (= p1_6 1)) (<= c_1 a_2))
    (=> (and (= p1_16 4) (= p1_6 3)) (<= a_2 c_1))
    (=> (= p1_17 1) (and (= p1_7 (ite p2_17 4 0)) (iff p2_7 p2_17)))
    (=> (= p1_17 2) (and (= p1_7 (ite p2_17 3 0)) (iff p2_7 p2_17)))
    (=> (= p1_17 3) (and (= p1_7 (ite p2_17 4 2)) (iff p2_7 p2_17)))
    (=> (= p1_17 0) (and (or (= p1_7 1) (= p1_7 2)) p2_7))
    (=> (and (= p1_17 0) (= p1_7 1)) (<= a_3 a_2))
    (=> (and (= p1_17 0) (= p1_7 2)) (<= a_2 a_3))
    (=> (= p1_17 4) (and (or (= p1_7 1) (= p1_7 3)) (not p2_7)))
    (=> (and (= p1_17 4) (= p1_7 1)) (<= c_1 a_2))
    (=> (and (= p1_17 4) (= p1_7 3)) (<= a_2 c_1))
    (=> (= p1_18 1) (and (= p1_8 (ite p2_18 4 0)) (iff p2_8 p2_18)))
    (=> (= p1_18 2) (and (= p1_8 (ite p2_18 3 0)) (iff p2_8 p2_18)))
    (=> (= p1_18 3) (and (= p1_8 (ite p2_18 4 2)) (iff p2_8 p2_18)))
    (=> (= p1_18 0) (and (or (= p1_8 1) (= p1_8 2)) p2_8))
    (=> (and (= p1_18 0) (= p1_8 1)) (<= a_3 a_2))
    (=> (and (= p1_18 0) (= p1_8 2)) (<= a_2 a_3))
    (=> (= p1_18 4) (and (or (= p1_8 1) (= p1_8 3)) (not p2_8)))
    (=> (and (= p1_18 4) (= p1_8 1)) (<= c_1 a_2))
    (=> (and (= p1_18 4) (= p1_8 3)) (<= a_2 c_1))
    (= s1
     (+ a (ite (= p1 1) 1 0) (ite (= p1_5 1) 1 0) (ite (= p1_2 1) 1 0)
      (ite (= p1_7 1) 1 0) (ite (= p1_1 1) 1 0) (ite (= p1_6 1) 1 0)
      (ite (= p1_3 1) 1 0) (ite (= p1_8 1) 1 0) (ite (= p1_4 1) 1 0)
      (ite (= p1_9 1) 1 0)))
    (= s3
     (+ c (ite (= p1 3) 1 0) (ite (= p1_5 3) 1 0) (ite (= p1_2 3) 1 0)
      (ite (= p1_7 3) 1 0) (ite (= p1_1 3) 1 0) (ite (= p1_6 3) 1 0)
      (ite (= p1_3 3) 1 0) (ite (= p1_8 3) 1 0) (ite (= p1_4 3) 1 0)
      (ite (= p1_9 3) 1 0)))
    (= s2
     (+ a_1 (ite (= p1 2) 1 0) (ite (= p1_5 2) 1 0) (ite (= p1_2 2) 1 0)
      (ite (= p1_7 2) 1 0) (ite (= p1_1 2) 1 0) (ite (= p1_6 2) 1 0)
      (ite (= p1_3 2) 1 0) (ite (= p1_8 2) 1 0) (ite (= p1_4 2) 1 0)
      (ite (= p1_9 2) 1 0)))
    (=> (= p1 1) (and (= a0 (ite p2 4 0)) (iff d0 p2)))
    (=> (= p1 2) (and (= a0 (ite p2 3 0)) (iff d0 p2)))
    (=> (= p1 3) (and (= a0 (ite p2 4 2)) (iff d0 p2)))
    (=> (= p1 0) (and (or (= a0 1) (= a0 2)) d0))
    (=> (and (= p1 0) (= a0 1)) (<= a_1 a))
    (=> (and (= p1 0) (= a0 2)) (<= a a_1))
    (=> (= p1 4) (and (or (= a0 1) (= a0 3)) (not d0)))
    (=> (and (= p1 4) (= a0 1)) (<= c a))
    (=> (and (= p1 4) (= a0 3)) (<= a c))
    (=> (= p1_4 1) (and (= a8 (ite p2_4 4 0)) (iff d8 p2_4)))
    (=> (= p1_4 2) (and (= a8 (ite p2_4 3 0)) (iff d8 p2_4)))
    (=> (= p1_4 3) (and (= a8 (ite p2_4 4 2)) (iff d8 p2_4)))
    (=> (= p1_4 0) (and (or (= a8 1) (= a8 2)) d8))
    (=> (and (= p1_4 0) (= a8 1)) (<= a_1 a))
    (=> (and (= p1_4 0) (= a8 2)) (<= a a_1))
    (=> (= p1_4 4) (and (or (= a8 1) (= a8 3)) (not d8)))
    (=> (and (= p1_4 4) (= a8 1)) (<= c a))
    (=> (and (= p1_4 4) (= a8 3)) (<= a c))
    (=> (= p1_1 1) (and (= a4 (ite p2_1 4 0)) (iff d4 p2_1)))
    (=> (= p1_1 2) (and (= a4 (ite p2_1 3 0)) (iff d4 p2_1)))
    (=> (= p1_1 3) (and (= a4 (ite p2_1 4 2)) (iff d4 p2_1)))
    (=> (= p1_1 0) (and (or (= a4 1) (= a4 2)) d4))
    (=> (and (= p1_1 0) (= a4 1)) (<= a_1 a))
    (=> (and (= p1_1 0) (= a4 2)) (<= a a_1))
    (=> (= p1_1 4) (and (or (= a4 1) (= a4 3)) (not d4)))
    (=> (and (= p1_1 4) (= a4 1)) (<= c a))
    (=> (and (= p1_1 4) (= a4 3)) (<= a c))
    (=> (= p1_2 1) (and (= a2 (ite p2_2 4 0)) (iff d2 p2_2)))
    (=> (= p1_2 2) (and (= a2 (ite p2_2 3 0)) (iff d2 p2_2)))
    (=> (= p1_2 3) (and (= a2 (ite p2_2 4 2)) (iff d2 p2_2)))
    (=> (= p1_2 0) (and (or (= a2 1) (= a2 2)) d2))
    (=> (and (= p1_2 0) (= a2 1)) (<= a_1 a))
    (=> (and (= p1_2 0) (= a2 2)) (<= a a_1))
    (=> (= p1_2 4) (and (or (= a2 1) (= a2 3)) (not d2)))
    (=> (and (= p1_2 4) (= a2 1)) (<= c a))
    (=> (and (= p1_2 4) (= a2 3)) (<= a c))
    (=> (= p1_3 1) (and (= a6 (ite p2_3 4 0)) (iff d6 p2_3)))
    (=> (= p1_3 2) (and (= a6 (ite p2_3 3 0)) (iff d6 p2_3)))
    (=> (= p1_3 3) (and (= a6 (ite p2_3 4 2)) (iff d6 p2_3)))
    (=> (= p1_3 0) (and (or (= a6 1) (= a6 2)) d6))
    (=> (and (= p1_3 0) (= a6 1)) (<= a_1 a))
    (=> (and (= p1_3 0) (= a6 2)) (<= a a_1))
    (=> (= p1_3 4) (and (or (= a6 1) (= a6 3)) (not d6)))
    (=> (and (= p1_3 4) (= a6 1)) (<= c a))
    (=> (and (= p1_3 4) (= a6 3)) (<= a c))
    (=> (= p1_5 1) (and (= a1 (ite p2_5 4 0)) (iff d1 p2_5)))
    (=> (= p1_5 2) (and (= a1 (ite p2_5 3 0)) (iff d1 p2_5)))
    (=> (= p1_5 3) (and (= a1 (ite p2_5 4 2)) (iff d1 p2_5)))
    (=> (= p1_5 0) (and (or (= a1 1) (= a1 2)) d1))
    (=> (and (= p1_5 0) (= a1 1)) (<= a_1 a))
    (=> (and (= p1_5 0) (= a1 2)) (<= a a_1))
    (=> (= p1_5 4) (and (or (= a1 1) (= a1 3)) (not d1)))
    (=> (and (= p1_5 4) (= a1 1)) (<= c a))
    (=> (and (= p1_5 4) (= a1 3)) (<= a c))
    (=> (= p1_9 1) (and (= a9 (ite p2_9 4 0)) (iff d9 p2_9)))
    (=> (= p1_9 2) (and (= a9 (ite p2_9 3 0)) (iff d9 p2_9)))
    (=> (= p1_9 3) (and (= a9 (ite p2_9 4 2)) (iff d9 p2_9)))
    (=> (= p1_9 0) (and (or (= a9 1) (= a9 2)) d9))
    (=> (and (= p1_9 0) (= a9 1)) (<= a_1 a))
    (=> (and (= p1_9 0) (= a9 2)) (<= a a_1))
    (=> (= p1_9 4) (and (or (= a9 1) (= a9 3)) (not d9)))
    (=> (and (= p1_9 4) (= a9 1)) (<= c a))
    (=> (and (= p1_9 4) (= a9 3)) (<= a c))
    (=> (= p1_6 1) (and (= a5 (ite p2_6 4 0)) (iff d5 p2_6)))
    (=> (= p1_6 2) (and (= a5 (ite p2_6 3 0)) (iff d5 p2_6)))
    (=> (= p1_6 3) (and (= a5 (ite p2_6 4 2)) (iff d5 p2_6)))
    (=> (= p1_6 0) (and (or (= a5 1) (= a5 2)) d5))
    (=> (and (= p1_6 0) (= a5 1)) (<= a_1 a))
    (=> (and (= p1_6 0) (= a5 2)) (<= a a_1))
    (=> (= p1_6 4) (and (or (= a5 1) (= a5 3)) (not d5)))
    (=> (and (= p1_6 4) (= a5 1)) (<= c a))
    (=> (and (= p1_6 4) (= a5 3)) (<= a c))
    (=> (= p1_7 1) (and (= a3 (ite p2_7 4 0)) (iff d3 p2_7)))
    (=> (= p1_7 2) (and (= a3 (ite p2_7 3 0)) (iff d3 p2_7)))
    (=> (= p1_7 3) (and (= a3 (ite p2_7 4 2)) (iff d3 p2_7)))
    (=> (= p1_7 0) (and (or (= a3 1) (= a3 2)) d3))
    (=> (and (= p1_7 0) (= a3 1)) (<= a_1 a))
    (=> (and (= p1_7 0) (= a3 2)) (<= a a_1))
    (=> (= p1_7 4) (and (or (= a3 1) (= a3 3)) (not d3)))
    (=> (and (= p1_7 4) (= a3 1)) (<= c a))
    (=> (and (= p1_7 4) (= a3 3)) (<= a c))
    (=> (= p1_8 1) (and (= a7 (ite p2_8 4 0)) (iff d7 p2_8)))
    (=> (= p1_8 2) (and (= a7 (ite p2_8 3 0)) (iff d7 p2_8)))
    (=> (= p1_8 3) (and (= a7 (ite p2_8 4 2)) (iff d7 p2_8)))
    (=> (= p1_8 0) (and (or (= a7 1) (= a7 2)) d7))
    (=> (and (= p1_8 0) (= a7 1)) (<= a_1 a))
    (=> (and (= p1_8 0) (= a7 2)) (<= a a_1))
    (=> (= p1_8 4) (and (or (= a7 1) (= a7 3)) (not d7)))
    (=> (and (= p1_8 4) (= a7 1)) (<= c a))
    (=> (and (= p1_8 4) (= a7 3)) (<= a c))))))
(check-sat)
(get-value
 (a0 a1 a2 a3 a4 a5 a6 a7 a8 a9 d0 d1 d2 d3 d4 d5 d6 d7 d8 d9 s1 s2 s3))
